Optimal - objective value 2851.00000000
      3 x_0_4                   1                       0
     25 x_1_13                  1                       0
     35 x_2_10                  1                       0
     47 x_3_9                   1                       0
     62 x_4_11                  1                       0
     72 x_5_8                   1                      84
     83 x_6_5                   1                     174
     93 x_7_2                   1                       0
    111 x_8_7                   1                     417
    117 x_9_0                   1                       0
    141 x_10_12                 1                     167
    144 x_11_1                  1                       0
    159 x_12_3                  1                       0
    175 x_13_6                  1                    -606
    182 u_1                     3                       0
    183 u_2       8.99999999999999                       0
    184 u_3                    12                       0
    185 u_4                     1                       0
    186 u_5                     6                       0
    187 u_6                     5                       0
    188 u_7       7.99999999999999                       0
    189 u_8                     7                       0
    190 u_9                    13                       0
    191 u_10                   10                       0
    192 u_11                    2                       0
    193 u_12                   11                       0
    194 u_13                    4                       0
